\ENCODING=ISO-8859-1
\Problem name: 

Maximize
 obj: x1 + x2 + x3 + x4 + x5 + x6 + x7 + x8 + x9 + x10 + x11 + x12 + x13 + x14
      + x15 + x16 + x17 + x18 + x19 + x20 + x21 + x22 + x23 + x24 + x25 + x26
      + x27 + x28 + x29 + x30 + x31 + x32 + x33 + x34 + x35 + x36 + x37 + x38
      + x39 + x40 + x41 + x42 + x43 + x44 + x45 + x46 + x47 + x48 + x49 + x50
      + x51 + x52 + x53 + x54 + x55 + x56 + x57 + x58 + x59 + x60 + x61 + x62
      + x63 + x64 + x65 + x66 + x67 + x68 + x69 + x70 + x71 + x72 + x73 + x74
      + x75 + x76 + x77 + x78 + x79 + x80 + x81 + x82 + x83 + x84 + x85 + x86
      + x87 + x88 + x89 + x90 + x91 + x92 + x93 + x94 + x95 + x96 + x97 + x98
      + x99 + x100 + x101 + x102 + x103 + x104 + x105 + x106 + x107 + x108
      + x109 + x110 + x111 + x112 + x113 + x114 + x115 + x116 + x117 + x118
      + x119 + x120 + x121 + x122 + x123 + x124 + x125 + x126 + x127 + x128
      + x129 + x130 + x131 + x132 + x133 + x134 + x135 + x136 + x137 + x138
      + x139 + x140 + x141 + x142 + x143 + x144 + x145 + x146 + x147 + x148
      + x149 + x150 + x151 + x152 + x153 + x154 + x155 + x156 + x157 + x158
      + x159 + x160 + x161 + x162 + x163 + x164 + x165 + x166 + x167 + x168
      + x169 + x170 + x171 + x172 + x173 + x174 + x175
Subject To
 clq1:   x34 + x109 + x144 <= 1
 clq2:   x2 + x47 + x105 <= 1
 clq3:   x6 + x39 + x120 + x160 <= 1
 clq4:   x39 + x75 + x98 <= 1
 clq5:   x11 + x36 + x57 <= 1
 clq6:   x74 + x106 <= 1
 clq7:   x23 + x60 <= 1
 clq8:   x2 + x25 + x151 <= 1
 clq9:   x19 + x27 + x97 <= 1
 clq10:  x79 + x81 + x149 <= 1
 clq11:  x134 + x160 <= 1
 clq12:  x18 + x22 + x165 <= 1
 clq13:  x43 + x65 + x141 <= 1
 clq14:  x3 + x100 + x161 <= 1
 clq15:  x104 + x133 + x151 <= 1
 clq16:  x43 + x84 + x118 <= 1
 clq17:  x65 + x146 + x169 <= 1
 clq18:  x18 + x79 + x120 <= 1
 clq19:  x21 + x54 + x171 <= 1
 clq20:  x27 + x85 + x164 <= 1
 clq21:  x21 + x123 + x126 <= 1
 clq22:  x139 + x148 + x171 <= 1
 clq23:  x56 + x66 + x107 <= 1
 clq24:  x57 + x80 + x147 <= 1
 clq25:  x67 + x74 <= 1
 clq26:  x58 + x63 + x151 <= 1
 clq27:  x67 + x151 + x152 <= 1
 clq28:  x119 + x167 <= 1
 clq29:  x45 + x100 + x125 <= 1
 clq30:  x56 + x75 <= 1
 clq31:  x42 + x73 + x165 <= 1
 clq32:  x5 + x13 + x157 <= 1
 clq33:  x97 + x114 + x173 <= 1
 clq34:  x20 + x25 + x175 <= 1
 clq35:  x153 + x157 <= 1
 clq36:  x5 + x160 + x170 + x175 <= 1
 clq37:  x62 + x74 + x111 <= 1
 clq38:  x9 + x54 + x171 <= 1
 clq39:  x44 + x127 + x169 <= 1
 clq40:  x6 + x85 + x140 <= 1
 clq41:  x62 + x92 + x125 <= 1
 clq42:  x20 + x169 <= 1
 clq43:  x39 + x127 <= 1
 clq44:  x39 + x94 + x115 <= 1
 clq45:  x83 + x149 + x150 <= 1
 clq46:  x119 + x132 <= 1
 clq47:  x129 + x140 <= 1
 clq48:  x6 + x143 <= 1
 clq49:  x24 + x93 + x154 <= 1
 clq50:  x45 + x83 + x150 <= 1
 clq51:  x11 + x21 + x36 <= 1
 clq52:  x6 + x63 + x79 <= 1
 clq53:  x47 + x124 <= 1
 clq54:  x3 + x33 + x65 + x119 <= 1
 clq55:  x19 + x113 + x127 <= 1
 clq56:  x123 + x142 + x152 <= 1
 clq57:  x105 + x135 + x159 <= 1
 clq58:  x130 + x147 <= 1
 clq59:  x124 + x130 + x151 <= 1
 clq60:  x42 + x67 <= 1
 clq61:  x80 + x147 + x174 <= 1
 clq62:  x97 + x109 + x126 <= 1
 clq63:  x63 + x139 + x153 + x168 <= 1
 clq64:  x52 + x75 + x135 <= 1
 clq65:  x16 + x75 <= 1
 clq66:  x21 + x90 <= 1
 clq67:  x44 + x111 + x138 <= 1
 clq68:  x55 + x117 + x138 <= 1
 clq69:  x49 + x81 + x116 <= 1
 clq70:  x91 + x141 + x161 <= 1
 clq71:  x3 + x170 + x175 <= 1
 clq72:  x25 + x135 + x175 <= 1
 clq73:  x41 + x127 <= 1
 clq74:  x41 + x83 + x174 <= 1
 clq75:  x67 + x86 + x110 <= 1
 clq76:  x83 + x95 + x144 <= 1
 clq77:  x33 + x78 + x129 <= 1
 clq78:  x3 + x152 <= 1
 clq79:  x138 + x158 <= 1
 clq80:  x64 + x90 <= 1
 clq81:  x3 + x55 <= 1
 clq82:  x68 + x112 + x146 + x174 <= 1
 clq83:  x97 + x128 + x172 <= 1
 clq84:  x19 + x44 + x49 <= 1
 clq85:  x67 + x96 + x132 <= 1
 clq86:  x55 + x117 + x124 <= 1
 clq87:  x29 + x158 <= 1
 clq88:  x66 + x72 + x155 <= 1
 clq89:  x28 + x174 <= 1
 clq90:  x82 + x88 <= 1
 clq91:  x98 + x120 + x139 <= 1
 clq92:  x15 + x108 <= 1
 clq93:  x34 + x125 + x155 <= 1
 clq94:  x49 + x87 + x139 <= 1
 clq95:  x27 + x30 + x97 <= 1
 clq96:  x16 + x103 + x155 <= 1
 clq97:  x49 + x83 + x91 <= 1
 clq98:  x40 + x86 <= 1
 clq99:  x11 + x27 + x57 <= 1
 clq100: x66 + x88 + x168 <= 1
 clq101: x26 + x137 <= 1
 clq102: x45 + x166 <= 1
 clq103: x79 + x94 + x163 <= 1
 clq104: x3 + x134 + x153 <= 1
 clq105: x44 + x97 + x170 <= 1
 clq106: x59 + x120 + x139 + x171 <= 1
 clq107: x35 + x70 <= 1
 clq108: x73 + x74 <= 1
 clq109: x127 + x134 <= 1
 clq110: x39 + x52 + x55 <= 1
 clq111: x58 + x108 + x172 <= 1
 clq112: x32 + x69 + x159 <= 1
 clq113: x98 + x120 + x159 <= 1
 clq114: x73 + x99 <= 1
 clq115: x68 + x104 + x111 <= 1
 clq116: x13 + x113 <= 1
 clq117: x31 + x160 + x164 <= 1
 clq118: x32 + x45 + x67 <= 1
 clq119: x1 + x68 + x112 <= 1
 clq120: x83 + x97 + x170 <= 1
 clq121: x33 + x65 + x165 <= 1
 clq122: x4 + x155 + x173 <= 1
 clq123: x10 + x80 + x141 <= 1
 clq124: x21 + x51 + x133 <= 1
 clq125: x59 + x150 <= 1
 clq126: x29 + x77 + x168 <= 1
 clq127: x45 + x83 + x133 <= 1
 clq128: x4 + x138 + x174 <= 1
 clq129: x108 + x114 + x140 <= 1
 clq130: x161 + x164 <= 1
 clq131: x55 + x124 + x165 <= 1
 clq132: x41 + x54 + x85 <= 1
 clq133: x71 + x150 <= 1
 clq134: x4 + x173 + x174 <= 1
 clq135: x32 + x163 <= 1
 clq136: x86 + x104 + x154 <= 1
 clq137: x42 + x95 <= 1
 clq138: x121 + x157 <= 1
 clq139: x70 + x169 <= 1
 clq140: x48 + x49 + x87 <= 1
 clq141: x2 + x137 <= 1
 clq142: x4 + x49 + x87 <= 1
 clq143: x26 + x95 + x114 <= 1
 clq144: x86 + x95 + x172 <= 1
 clq145: x3 + x4 + x18 <= 1
 clq146: x57 + x76 + x83 <= 1
 clq147: x23 + x61 + x127 <= 1
 clq148: x43 + x84 + x136 <= 1
 clq149: x2 + x56 <= 1
 clq150: x5 + x29 <= 1
 clq151: x20 + x27 <= 1
 clq152: x1 + x86 + x142 <= 1
 clq153: x84 + x91 + x119 <= 1
 clq154: x89 + x120 + x141 <= 1
 clq155: x59 + x102 + x107 <= 1
 clq156: x84 + x87 + x110 <= 1
 clq157: x126 + x154 <= 1
 clq158: x55 + x59 + x72 <= 1
 clq159: x30 + x61 + x122 <= 1
 clq160: x78 + x88 + x100 <= 1
 clq161: x66 + x80 + x141 <= 1
 clq162: x22 + x43 + x167 <= 1
 clq163: x35 + x134 <= 1
 clq164: x41 + x83 + x156 <= 1
 clq165: x16 + x170 <= 1
 clq166: x26 + x105 + x119 + x150 <= 1
 clq167: x3 + x18 + x134 <= 1
 clq168: x90 + x96 + x128 <= 1
 clq169: x18 + x79 + x149 <= 1
 clq170: x31 + x82 <= 1
 clq171: x143 + x171 <= 1
 clq172: x151 + x156 <= 1
 clq173: x59 + x139 + x153 <= 1
 clq174: x85 + x160 + x164 <= 1
 clq175: x50 + x63 + x153 <= 1
 clq176: x7 + x14 + x66 <= 1
 clq177: x47 + x94 + x125 <= 1
 clq178: x17 + x61 <= 1
 clq179: x6 + x87 + x157 <= 1
 clq180: x8 + x25 + x51 <= 1
 clq181: x33 + x142 + x146 <= 1
 clq182: x37 + x89 + x132 <= 1
 clq183: x7 + x61 + x127 <= 1
 clq184: x56 + x66 + x175 <= 1
 clq185: x23 + x127 + x148 <= 1
 clq186: x34 + x44 + x114 <= 1
 clq187: x3 + x136 + x153 <= 1
 clq188: x34 + x141 + x161 <= 1
 clq189: x71 + x115 + x141 <= 1
 clq190: x55 + x163 <= 1
 clq191: x31 + x120 + x160 <= 1
 clq192: x19 + x86 + x94 <= 1
 clq193: x80 + x151 + x152 <= 1
 clq194: x62 + x102 + x126 <= 1
 clq195: x43 + x117 + x136 <= 1
 clq196: x23 + x53 + x158 <= 1
 clq197: x8 + x11 + x70 <= 1
 clq198: x8 + x42 + x147 <= 1
 clq199: x81 + x116 + x161 <= 1
 clq200: x27 + x30 + x171 <= 1
 clq201: x37 + x128 + x166 <= 1
 clq202: x41 + x101 + x109 + x135 <= 1
 clq203: x53 + x113 <= 1
 clq204: x10 + x124 + x159 <= 1
 clq205: x18 + x120 + x168 <= 1
 clq206: x80 + x110 + x172 <= 1
 clq207: x66 + x101 + x157 <= 1
 clq208: x67 + x148 + x161 <= 1
 clq209: x65 + x68 + x82 <= 1
 clq210: x6 + x85 + x157 <= 1
 clq211: x89 + x99 + x103 + x156 <= 1
 clq212: x41 + x82 + x111 <= 1
 clq213: x20 + x140 <= 1
 clq214: x1 + x47 + x64 <= 1
 clq215: x3 + x33 + x119 + x153 <= 1
 clq216: x128 + x136 <= 1
 clq217: x36 + x83 + x174 <= 1
 clq218: x49 + x100 <= 1
 clq219: x103 + x156 + x167 <= 1
 clq220: x31 + x93 + x112 <= 1
 clq221: x40 + x72 + x124 <= 1
 clq222: x17 + x32 + x70 <= 1
 clq223: x23 + x42 <= 1
 clq224: x41 + x66 + x101 <= 1
 clq225: x30 + x122 + x171 <= 1
 clq226: x142 + x143 <= 1
 clq227: x50 + x94 <= 1
 clq228: x28 + x70 <= 1
 clq229: x26 + x154 <= 1
 clq230: x5 + x66 + x157 <= 1
 clq231: x13 + x141 <= 1
 clq232: x48 + x136 <= 1
 clq233: x11 + x27 + x85 <= 1
 clq234: x46 + x68 + x78 <= 1
 clq235: x4 + x76 + x77 <= 1
 clq236: x9 + x58 + x151 <= 1
 clq237: x32 + x45 + x146 <= 1
 clq238: x23 + x34 + x131 <= 1
 clq239: x128 + x161 + x172 <= 1
 clq240: x3 + x161 + x166 <= 1
 clq241: x2 + x166 <= 1
 clq242: x44 + x58 + x75 <= 1
 clq243: x61 + x147 + x167 <= 1
 clq244: x80 + x141 + x144 + x152 <= 1
 clq245: x31 + x137 <= 1
 clq246: x98 + x173 <= 1
 clq247: x38 + x45 + x125 <= 1
 clq248: x6 + x14 + x165 + x172 <= 1
 clq249: x39 + x69 <= 1
 clq250: x102 + x126 + x157 <= 1
 clq251: x33 + x142 + x165 <= 1
 clq252: x31 + x35 <= 1
 clq253: x14 + x94 <= 1
 clq254: x45 + x99 + x100 <= 1
 clq255: x18 + x20 <= 1
 clq256: x6 + x148 + x159 <= 1
 clq257: x103 + x148 + x159 <= 1
 clq258: x37 + x89 + x99 <= 1
 clq259: x11 + x147 + x175 <= 1
 clq260: x65 + x127 + x141 <= 1
 clq261: x48 + x143 <= 1
 clq262: x9 + x114 + x140 + x171 <= 1
 clq263: x78 + x83 + x170 <= 1
 clq264: x55 + x77 <= 1
 clq265: x33 + x77 + x119 <= 1
 clq266: x19 + x60 <= 1
 clq267: x10 + x55 + x60 <= 1
 clq268: x16 + x77 <= 1
 clq269: x78 + x138 + x168 <= 1
 clq270: x23 + x66 <= 1
 clq271: x84 + x93 + x154 <= 1
 clq272: x62 + x122 + x126 <= 1
 clq273: x31 + x63 + x153 <= 1
 clq274: x77 + x157 <= 1
 clq275: x40 + x145 <= 1
 clq276: x71 + x76 + x129 <= 1
 clq277: x41 + x66 + x175 <= 1
 clq278: x46 + x139 <= 1
 clq279: x1 + x84 + x112 <= 1
 clq280: x32 + x146 + x159 <= 1
 clq281: x24 + x137 + x174 <= 1
 clq282: x36 + x46 <= 1
 clq283: x53 + x109 + x116 <= 1
 clq284: x85 + x158 <= 1
 clq285: x65 + x127 + x169 <= 1
 clq286: x8 + x126 + x157 <= 1
 clq287: x42 + x58 <= 1
 clq288: x25 + x146 + x161 <= 1
 clq289: x88 + x127 + x168 <= 1
 clq290: x19 + x97 + x127 + x141 <= 1
 clq291: x11 + x79 + x174 <= 1
 clq292: x22 + x99 <= 1
 clq293: x34 + x57 + x152 <= 1
 clq294: x143 + x153 <= 1
 clq295: x84 + x91 + x110 <= 1
 clq296: x120 + x141 + x152 <= 1
 clq297: x80 + x102 + x141 <= 1
 clq298: x109 + x147 <= 1
 clq299: x19 + x113 + x117 <= 1
 clq300: x29 + x88 + x168 <= 1
 clq301: x12 + x156 <= 1
 clq302: x22 + x54 + x70 + x92 <= 1
 clq303: x51 + x97 + x109 <= 1
 clq304: x17 + x70 + x92 <= 1
 clq305: x17 + x107 <= 1
 clq306: x11 + x18 + x79 <= 1
 clq307: x111 + x138 + x164 <= 1
 clq308: x41 + x66 + x145 <= 1
 clq309: x4 + x39 + x138 <= 1
 clq310: x86 + x95 + x151 <= 1
 clq311: x48 + x126 + x131 <= 1
 clq312: x39 + x98 + x138 <= 1
 clq313: x7 + x14 + x53 <= 1
 clq314: x74 + x123 <= 1
 clq315: x38 + x77 <= 1
 clq316: x61 + x128 + x159 <= 1
 clq317: x102 + x113 <= 1
 clq318: x4 + x43 + x76 <= 1
 clq319: x86 + x118 + x132 <= 1
 clq320: x34 + x36 + x57 + x161 <= 1
 clq321: x42 + x147 + x174 <= 1
 clq322: x81 + x110 + x149 <= 1
 clq323: x48 + x67 + x71 <= 1
 clq324: x22 + x140 + x167 <= 1
 clq325: x111 + x166 <= 1
 clq326: x99 + x123 + x156 <= 1
 clq327: x58 + x106 <= 1
 clq328: x21 + x101 + x123 <= 1
 clq329: x78 + x88 + x168 <= 1
 clq330: x48 + x147 <= 1
 clq331: x40 + x72 + x98 <= 1
 clq332: x122 + x128 + x161 + x166 <= 1
 clq333: x85 + x110 + x155 <= 1
 clq334: x9 + x49 + x96 <= 1
 clq335: x88 + x90 + x121 <= 1
 clq336: x20 + x43 <= 1
 clq337: x3 + x21 <= 1
 clq338: x3 + x156 <= 1
 clq339: x30 + x66 + x155 <= 1
 clq340: x1 + x8 + x142 <= 1
 clq341: x89 + x103 + x173 <= 1
 clq342: x34 + x167 <= 1
 clq343: x25 + x124 + x151 <= 1
 clq344: x59 + x102 + x139 <= 1
 clq345: x34 + x109 + x155 <= 1
 clq346: x130 + x158 <= 1
 clq347: x74 + x76 <= 1
 clq348: x15 + x139 + x153 <= 1
 clq349: x83 + x162 <= 1
 clq350: x8 + x11 + x125 <= 1
 clq351: x88 + x103 + x133 <= 1
 clq352: x84 + x134 <= 1
 clq353: x10 + x31 <= 1
 clq354: x54 + x103 + x155 <= 1
 clq355: x73 + x140 + x173 <= 1
 clq356: x127 + x164 <= 1
 clq357: x14 + x57 <= 1
 clq358: x8 + x38 + x161 + x172 <= 1
 clq359: x112 + x167 <= 1
 clq360: x28 + x78 + x88 <= 1
 clq361: x41 + x85 + x105 <= 1
 clq362: x11 + x147 + x174 <= 1
 clq363: x88 + x90 + x103 <= 1
 clq364: x7 + x106 <= 1
 clq365: x14 + x35 <= 1
 clq366: x41 + x152 <= 1
 clq367: x43 + x45 + x135 <= 1
 clq368: x29 + x144 <= 1
 clq369: x124 + x126 <= 1
 clq370: x32 + x70 + x106 + x119 <= 1
 clq371: x49 + x87 + x107 <= 1
 clq372: x44 + x97 + x114 <= 1
 clq373: x11 + x69 <= 1
 clq374: x6 + x90 + x144 <= 1
 clq375: x1 + x101 + x112 <= 1
 clq376: x131 + x133 + x135 <= 1
 clq377: x16 + x66 + x155 <= 1
 clq378: x48 + x85 <= 1
 clq379: x123 + x148 + x159 <= 1
 clq380: x60 + x173 <= 1
 clq381: x16 + x46 <= 1
 clq382: x39 + x42 + x160 <= 1
 clq383: x51 + x75 <= 1
 clq384: x118 + x163 <= 1
 clq385: x120 + x152 + x160 <= 1
 clq386: x31 + x99 + x112 <= 1
 clq387: x10 + x145 <= 1
 clq388: x43 + x70 + x84 <= 1
 clq389: x57 + x122 + x126 <= 1
 clq390: x39 + x54 + x87 <= 1
 clq391: x22 + x82 + x92 <= 1
 clq392: x42 + x135 + x160 <= 1
 clq393: x17 + x44 + x58 <= 1
 clq394: x3 + x33 + x53 <= 1
 clq395: x23 + x121 + x172 <= 1
 clq396: x35 + x152 <= 1
 clq397: x30 + x89 + x142 <= 1
 clq398: x55 + x67 + x132 <= 1
 clq399: x30 + x81 <= 1
 clq400: x16 + x105 <= 1
 clq401: x55 + x68 + x135 <= 1
 clq402: x52 + x62 <= 1
 clq403: x45 + x81 + x125 <= 1
 clq404: x54 + x147 <= 1
 clq405: x93 + x112 + x139 <= 1
 clq406: x47 + x105 + x135 <= 1
 clq407: x32 + x119 + x150 <= 1
 clq408: x119 + x131 + x150 <= 1
 clq409: x26 + x54 + x66 + x155 <= 1
 clq410: x24 + x72 <= 1
 clq411: x53 + x160 <= 1
 clq412: x106 + x138 <= 1
 clq413: x9 + x13 + x114 <= 1
 clq414: x32 + x45 + x70 <= 1
 clq415: x42 + x56 <= 1
 clq416: x81 + x93 + x149 <= 1
 clq417: x8 + x108 + x172 <= 1
 clq418: x11 + x57 + x147 <= 1
 clq419: x4 + x73 + x173 <= 1
 clq420: x20 + x81 <= 1
 clq421: x34 + x70 + x131 <= 1
 clq422: x87 + x164 <= 1
 clq423: x43 + x58 + x117 <= 1
 clq424: x158 + x163 <= 1
 clq425: x98 + x136 <= 1
 clq426: x32 + x70 + x85 <= 1
 clq427: x8 + x11 + x60 <= 1
 clq428: x8 + x113 + x125 <= 1
 clq429: x4 + x37 <= 1
 clq430: x49 + x116 + x158 <= 1
 clq431: x55 + x149 <= 1
 clq432: x20 + x39 + x55 <= 1
 clq433: x43 + x88 <= 1
 clq434: x57 + x76 + x127 <= 1
 clq435: x43 + x65 + x154 <= 1
 clq436: x3 + x106 + x161 <= 1
 clq437: x100 + x141 + x143 <= 1
 clq438: x33 + x89 + x153 <= 1
 clq439: x24 + x30 <= 1
 clq440: x95 + x134 <= 1
 clq441: x79 + x111 + x113 <= 1
 clq442: x122 + x132 + x174 <= 1
 clq443: x99 + x103 + x104 <= 1
 clq444: x81 + x108 + x116 <= 1
 clq445: x8 + x64 + x113 + x117 <= 1
 clq446: x102 + x119 <= 1
 clq447: x18 + x28 + x149 <= 1
 clq448: x9 + x24 + x174 <= 1
 clq449: x63 + x135 <= 1
 clq450: x18 + x22 + x71 <= 1
 clq451: x12 + x100 + x160 <= 1
 clq452: x24 + x128 + x154 <= 1
 clq453: x40 + x143 + x162 <= 1
 clq454: x52 + x165 + x166 <= 1
 clq455: x26 + x136 <= 1
 clq456: x17 + x48 + x58 <= 1
 clq457: x2 + x35 + x171 <= 1
 clq458: x72 + x146 <= 1
 clq459: x88 + x91 + x103 + x168 <= 1
 clq460: x37 + x129 <= 1
 clq461: x64 + x97 <= 1
 clq462: x4 + x10 <= 1
 clq463: x65 + x160 + x170 <= 1
 clq464: x9 + x18 + x151 <= 1
 clq465: x35 + x76 <= 1
 clq466: x34 + x69 + x118 <= 1
 clq467: x46 + x62 <= 1
 clq468: x5 + x142 + x146 <= 1
 clq469: x24 + x52 + x117 <= 1
 clq470: x91 + x116 + x161 <= 1
 clq471: x22 + x66 + x140 <= 1
 clq472: x48 + x103 + x156 <= 1
 clq473: x2 + x32 <= 1
 clq474: x9 + x136 + x174 <= 1
 clq475: x95 + x103 + x107 <= 1
 clq476: x30 + x50 + x151 <= 1
 clq477: x7 + x62 + x158 <= 1
 clq478: x129 + x159 <= 1
 clq479: x78 + x105 <= 1
 clq480: x22 + x56 + x130 <= 1
 clq481: x76 + x105 + x169 <= 1
 clq482: x17 + x52 <= 1
 clq483: x44 + x99 + x156 <= 1
 clq484: x56 + x78 + x110 <= 1
 clq485: x155 + x162 <= 1
 clq486: x83 + x156 + x167 <= 1
 clq487: x58 + x115 <= 1
 clq488: x45 + x105 + x135 <= 1
 clq489: x15 + x155 <= 1
 clq490: x85 + x113 + x117 <= 1
 clq491: x76 + x127 + x169 <= 1
 clq492: x105 + x141 <= 1
 clq493: x54 + x78 + x155 <= 1
 clq494: x44 + x81 + x99 <= 1
 clq495: x152 + x154 <= 1
 clq496: x22 + x114 + x130 + x140 <= 1
 clq497: x1 + x84 + x110 <= 1
 clq498: x42 + x57 + x73 <= 1
 clq499: x12 + x113 <= 1
 clq500: x8 + x123 + x126 <= 1
 clq501: x26 + x109 + x155 <= 1
 clq502: x33 + x119 + x129 <= 1
 clq503: x2 + x35 + x40 <= 1
 clq504: x7 + x88 + x127 <= 1
 clq505: x26 + x105 + x156 <= 1
 clq506: x40 + x174 <= 1
 clq507: x63 + x122 + x153 <= 1
 clq508: x25 + x104 + x175 <= 1
 clq509: x31 + x86 + x104 <= 1
 clq510: x10 + x52 + x55 <= 1
 clq511: x139 + x165 <= 1
 clq512: x43 + x80 + x117 <= 1
 clq513: x5 + x112 + x146 <= 1
 clq514: x66 + x111 + x164 <= 1
 clq515: x53 + x124 <= 1
 clq516: x49 + x139 + x148 <= 1
 clq517: x82 + x150 <= 1
 clq518: x81 + x93 + x116 <= 1
 clq519: x80 + x121 + x151 <= 1
 clq520: x4 + x43 + x45 <= 1
 clq521: x39 + x54 + x108 <= 1
 clq522: x87 + x157 + x169 <= 1
 clq523: x65 + x91 + x141 <= 1
 clq524: x12 + x160 + x175 <= 1
 clq525: x45 + x60 <= 1
 clq526: x3 + x65 + x106 + x170 <= 1
 clq527: x62 + x122 + x150 <= 1
 clq528: x4 + x68 + x112 + x174 <= 1
 clq529: x48 + x71 + x87 <= 1
 clq530: x25 + x92 + x161 <= 1
 clq531: x53 + x154 <= 1
 clq532: x155 + x161 + x173 <= 1
 clq533: x48 + x53 + x67 <= 1
 clq534: x25 + x161 + x163 <= 1
 clq535: x9 + x120 + x155 <= 1
 clq536: x138 + x148 <= 1
 clq537: x24 + x95 + x114 <= 1
 clq538: x67 + x71 + x86 <= 1
 clq539: x70 + x84 + x119 <= 1
 clq540: x26 + x28 + x49 <= 1
 clq541: x113 + x143 <= 1
 clq542: x3 + x93 + x162 <= 1
 clq543: x59 + x106 + x145 <= 1
 clq544: x100 + x108 + x143 <= 1
 clq545: x47 + x48 + x64 <= 1
 clq546: x85 + x112 + x113 <= 1
 clq547: x6 + x120 + x159 <= 1
 clq548: x57 + x119 <= 1
 clq549: x8 + x123 + x168 <= 1
 clq550: x36 + x135 <= 1
 clq551: x77 + x113 + x122 <= 1
 clq552: x7 + x16 + x66 <= 1
 clq553: x38 + x48 + x67 <= 1
 clq554: x9 + x10 + x96 <= 1
 clq555: x50 + x174 <= 1
 clq556: x24 + x133 <= 1
 clq557: x50 + x78 <= 1
 clq558: x3 + x63 + x153 + x168 <= 1
 clq559: x3 + x166 + x175 <= 1
 clq560: x28 + x88 + x163 <= 1
 clq561: x101 + x149 <= 1
 clq562: x17 + x47 + x48 <= 1
 clq563: x4 + x76 + x173 <= 1
 clq564: x3 + x63 + x96 <= 1
 clq565: x57 + x122 + x128 + x161 <= 1
 clq566: x115 + x131 + x135 <= 1
 clq567: x63 + x86 + x154 <= 1
 clq568: x22 + x143 <= 1
 clq569: x87 + x107 + x110 <= 1
 clq570: x49 + x83 + x144 <= 1
 clq571: x85 + x142 + x164 <= 1
 clq572: x30 + x122 + x150 <= 1
 clq573: x45 + x117 + x150 <= 1
 clq574: x5 + x66 + x175 <= 1
 clq575: x47 + x64 + x106 <= 1
 clq576: x40 + x87 <= 1
 clq577: x82 + x162 <= 1
 clq578: x52 + x55 + x135 + x165 <= 1
 clq579: x11 + x170 + x175 <= 1
 clq580: x4 + x76 + x149 <= 1
 clq581: x6 + x119 <= 1
 clq582: x62 + x102 + x134 <= 1
 clq583: x116 + x156 <= 1
 clq584: x56 + x61 + x127 <= 1
 clq585: x13 + x87 + x157 <= 1
 clq586: x5 + x52 + x106 <= 1
 clq587: x4 + x49 + x91 <= 1
 clq588: x1 + x162 <= 1
 clq589: x46 + x60 <= 1
 clq590: x12 + x78 + x129 <= 1
 clq591: x100 + x122 + x161 <= 1
 clq592: x56 + x127 + x169 <= 1
 clq593: x8 + x25 + x161 <= 1
 clq594: x8 + x43 + x117 <= 1
 clq595: x18 + x132 <= 1
 clq596: x35 + x108 + x136 <= 1
 clq597: x19 + x165 <= 1
 clq598: x66 + x88 + x140 <= 1
 clq599: x99 + x112 + x174 <= 1
 clq600: x39 + x98 + x115 + x120 <= 1
 clq601: x102 + x108 <= 1
 clq602: x62 + x81 + x125 <= 1
 clq603: x30 + x48 + x87 <= 1
 clq604: x8 + x38 + x142 <= 1
 clq605: x66 + x107 + x141 <= 1
 clq606: x128 + x158 + x162 <= 1
 clq607: x23 + x131 + x172 <= 1
 clq608: x74 + x141 <= 1
 clq609: x107 + x137 <= 1
 clq610: x29 + x74 <= 1
 clq611: x62 + x125 + x137 <= 1
 clq612: x43 + x80 + x118 <= 1
 clq613: x19 + x62 <= 1
 clq614: x51 + x122 <= 1
 clq615: x15 + x20 + x139 <= 1
 clq616: x26 + x67 + x168 <= 1
 clq617: x44 + x138 + x169 <= 1
 clq618: x47 + x94 + x105 <= 1
 clq619: x18 + x63 + x79 <= 1
 clq620: x37 + x146 <= 1
 clq621: x1 + x50 <= 1
 clq622: x115 + x140 <= 1
 clq623: x46 + x160 <= 1
 clq624: x18 + x34 + x151 <= 1
 clq625: x45 + x125 + x140 <= 1
 clq626: x45 + x140 + x150 <= 1
 clq627: x28 + x30 <= 1
 clq628: x13 + x67 <= 1
 clq629: x129 + x141 + x143 <= 1
 clq630: x15 + x23 + x69 <= 1
 clq631: x26 + x58 <= 1
 clq632: x24 + x69 <= 1
 clq633: x84 + x158 <= 1
 clq634: x87 + x131 + x157 <= 1
 clq635: x23 + x97 + x172 <= 1
 clq636: x4 + x32 + x45 <= 1
 clq637: x17 + x154 <= 1
 clq638: x47 + x125 + x140 + x171 <= 1
 clq639: x84 + x93 + x112 <= 1
 clq640: x45 + x133 + x134 <= 1
 clq641: x48 + x103 + x133 <= 1
 clq642: x34 + x44 + x109 <= 1
 clq643: x27 + x149 <= 1
 clq644: x12 + x78 + x155 <= 1
 clq645: x65 + x79 + x82 <= 1
 clq646: x5 + x123 + x148 <= 1
 clq647: x1 + x69 + x96 <= 1
 clq648: x1 + x18 + x28 <= 1
 clq649: x48 + x65 + x67 <= 1
 clq650: x84 + x90 <= 1
 clq651: x66 + x80 + x93 <= 1
 clq652: x6 + x15 + x104 <= 1
 clq653: x101 + x109 + x112 <= 1
 clq654: x44 + x81 + x109 <= 1
 clq655: x49 + x151 + x152 <= 1
 clq656: x73 + x118 <= 1
 clq657: x105 + x112 + x159 <= 1
 clq658: x27 + x97 + x172 <= 1
 clq659: x35 + x168 <= 1
 clq660: x102 + x141 + x166 <= 1
 clq661: x5 + x91 + x175 <= 1
 clq662: x6 + x44 <= 1
 clq663: x66 + x132 <= 1
 clq664: x23 + x53 + x69 <= 1
 clq665: x26 + x49 + x101 <= 1
 clq666: x90 + x92 + x115 <= 1
 clq667: x31 + x149 + x158 <= 1
 clq668: x22 + x114 + x140 + x173 <= 1
 clq669: x52 + x116 <= 1
 clq670: x7 + x137 + x174 <= 1
 clq671: x3 + x18 + x22 <= 1
 clq672: x54 + x78 + x168 <= 1
 clq673: x2 + x131 + x171 <= 1
 clq674: x96 + x163 <= 1
 clq675: x89 + x132 + x147 <= 1
 clq676: x65 + x106 + x154 <= 1
 clq677: x89 + x132 + x142 <= 1
 clq678: x4 + x114 + x173 <= 1
 clq679: x64 + x72 <= 1
 clq680: x96 + x124 + x127 <= 1
 clq681: x15 + x145 <= 1
 clq682: x30 + x119 + x150 <= 1
 clq683: x103 + x108 + x148 <= 1
 clq684: x47 + x84 + x140 <= 1
 clq685: x33 + x89 + x173 <= 1
 clq686: x59 + x104 + x171 <= 1
 clq687: x11 + x85 + x105 <= 1
 clq688: x9 + x53 + x155 <= 1
 clq689: x34 + x88 <= 1
 clq690: x128 + x148 + x161 <= 1
 clq691: x96 + x149 + x167 <= 1
 clq692: x38 + x72 + x124 <= 1
 clq693: x29 + x59 <= 1
 clq694: x47 + x89 + x95 <= 1
 clq695: x18 + x34 + x44 <= 1
 clq696: x120 + x146 + x159 <= 1
 clq697: x51 + x93 <= 1
 clq698: x70 + x77 + x106 + x119 <= 1
 clq699: x94 + x148 <= 1
 clq700: x1 + x47 + x59 <= 1
 clq701: x17 + x148 <= 1
 clq702: x50 + x113 <= 1
 clq703: x11 + x21 + x123 <= 1
 clq704: x38 + x62 + x125 <= 1
 clq705: x25 + x88 + x89 + x103 <= 1
 clq706: x15 + x92 <= 1
 clq707: x3 + x4 + x136 + x174 <= 1
 clq708: x89 + x103 + x142 <= 1
 clq709: x46 + x118 <= 1
 clq710: x22 + x56 + x127 <= 1
 clq711: x11 + x18 + x75 <= 1
 clq712: x1 + x8 + x68 <= 1
 clq713: x3 + x134 + x162 <= 1
 clq714: x123 + x152 + x169 <= 1
 clq715: x25 + x151 + x163 <= 1
 clq716: x21 + x123 + x142 <= 1
 clq717: x84 + x109 + x119 <= 1
 clq718: x9 + x49 + x151 <= 1
 clq719: x64 + x130 <= 1
 clq720: x68 + x107 <= 1
 clq721: x26 + x122 + x150 <= 1
 clq722: x51 + x136 <= 1
 clq723: x21 + x52 <= 1
 clq724: x7 + x76 + x127 <= 1
 clq725: x46 + x159 <= 1
 clq726: x86 + x117 + x123 <= 1
 clq727: x70 + x120 + x139 <= 1
 clq728: x103 + x139 + x148 <= 1
 clq729: x20 + x31 <= 1
 clq730: x37 + x128 + x154 <= 1
 clq731: x35 + x65 + x146 <= 1
 clq732: x61 + x122 + x128 <= 1
 clq733: x79 + x129 <= 1
 clq734: x8 + x42 + x123 <= 1
 clq735: x46 + x113 + x117 <= 1
 clq736: x12 + x42 + x171 <= 1
 clq737: x41 + x98 + x101 <= 1
 clq738: x46 + x78 + x90 <= 1
 clq739: x52 + x55 + x67 <= 1
 clq740: x78 + x129 + x170 <= 1
 clq741: x124 + x127 + x141 <= 1
 clq742: x89 + x127 + x141 <= 1
 clq743: x129 + x141 + x161 <= 1
 clq744: x42 + x135 + x171 <= 1
 clq745: x108 + x111 <= 1
 clq746: x8 + x83 + x172 <= 1
 clq747: x83 + x97 + x172 <= 1
 clq748: x19 + x35 <= 1
 clq749: x57 + x71 + x76 <= 1
 clq750: x44 + x49 + x81 <= 1
 clq751: x39 + x87 + x107 <= 1
 clq752: x98 + x150 <= 1
 clq753: x33 + x53 + x67 <= 1
 clq754: x123 + x130 <= 1
 clq755: x94 + x143 + x163 <= 1
 clq756: x74 + x163 <= 1
 clq757: x79 + x111 + x164 <= 1
 clq758: x70 + x77 + x120 <= 1
 clq759: x65 + x68 + x146 <= 1
 clq760: x15 + x128 <= 1
 clq761: x22 + x92 + x109 <= 1
 clq762: x96 + x128 + x132 <= 1
 clq763: x5 + x106 + x154 <= 1
 clq764: x86 + x117 + x138 <= 1
 clq765: x88 + x94 + x163 <= 1
 clq766: x88 + x95 + x100 <= 1
 clq767: x33 + x85 + x117 <= 1
 clq768: x50 + x149 + x167 <= 1
 clq769: x101 + x160 + x164 <= 1
 clq770: x61 + x71 <= 1
 clq771: x31 + x132 + x158 <= 1
 clq772: x54 + x103 + x159 <= 1
 clq773: x38 + x75 <= 1
 clq774: x103 + x148 + x156 <= 1
 clq775: x7 + x53 + x158 <= 1
 clq776: x43 + x45 + x67 <= 1
 clq777: x5 + x52 + x165 <= 1
 clq778: x93 + x173 <= 1
 clq779: x34 + x65 + x141 <= 1
 clq780: x97 + x115 + x141 <= 1
 clq781: x67 + x86 + x151 <= 1
 clq782: x34 + x55 + x131 <= 1
 clq783: x123 + x155 <= 1
 clq784: x23 + x91 <= 1
 clq785: x61 + x99 <= 1
 clq786: x19 + x68 <= 1
 clq787: x88 + x89 + x147 <= 1
 clq788: x92 + x97 + x109 + x115 <= 1
 clq789: x46 + x76 <= 1
 clq790: x3 + x94 <= 1
 clq791: x9 + x126 <= 1
 clq792: x10 + x27 + x111 <= 1
 clq793: x2 + x74 <= 1
 clq794: x137 + x138 + x174 <= 1
 clq795: x32 + x66 <= 1
 clq796: x56 + x63 <= 1
 clq797: x47 + x59 + x106 <= 1
 clq798: x2 + x54 + x171 <= 1
 clq799: x118 + x164 <= 1
 clq800: x55 + x131 + x135 <= 1
 clq801: x26 + x67 + x101 <= 1
 clq802: x40 + x98 + x143 <= 1
 clq803: x13 + x92 <= 1
 clq804: x44 + x162 <= 1
 clq805: x16 + x27 <= 1
 clq806: x25 + x146 + x151 <= 1
 clq807: x30 + x31 <= 1
 clq808: x25 + x88 + x146 <= 1
 clq809: x112 + x152 <= 1
 clq810: x26 + x33 + x130 <= 1
 clq811: x30 + x66 + x111 <= 1
 clq812: x97 + x163 <= 1
 clq813: x26 + x66 + x175 <= 1
 clq814: x154 + x163 <= 1
 clq815: x11 + x60 + x85 + x110 <= 1
 clq816: x44 + x75 + x111 <= 1
 clq817: x11 + x136 + x174 <= 1
 clq818: x80 + x116 + x158 <= 1
 clq819: x115 + x118 <= 1
 clq820: x6 + x90 + x165 <= 1
 clq821: x15 + x147 <= 1
 clq822: x64 + x81 + x149 <= 1
 clq823: x41 + x101 + x174 <= 1
 clq824: x16 + x102 <= 1
 clq825: x17 + x29 + x32 <= 1
 clq826: x51 + x109 + x119 <= 1
 clq827: x45 + x81 + x116 <= 1
 clq828: x112 + x163 <= 1
 clq829: x27 + x99 <= 1
 clq830: x28 + x88 + x145 <= 1
 clq831: x36 + x83 + x97 <= 1
 clq832: x73 + x145 + x173 <= 1
 clq833: x62 + x105 + x150 <= 1
 clq834: x71 + x129 + x141 <= 1
 clq835: x91 + x124 + x153 <= 1
 clq836: x5 + x76 + x175 <= 1
 clq837: x9 + x24 + x120 <= 1
 clq838: x97 + x109 + x172 <= 1
 clq839: x6 + x52 + x104 <= 1
 clq840: x33 + x65 + x67 <= 1
 clq841: x67 + x86 + x132 <= 1
 clq842: x15 + x107 <= 1
 clq843: x118 + x169 <= 1
 clq844: x17 + x18 + x29 <= 1
 clq845: x1 + x61 <= 1
 clq846: x80 + x121 + x174 <= 1
 clq847: x98 + x101 + x120 <= 1
 clq848: x55 + x59 + x102 <= 1
 clq849: x34 + x65 + x79 <= 1
 clq850: x21 + x72 <= 1
 clq851: x8 + x25 + x113 <= 1
 clq852: x39 + x128 + x172 <= 1
 clq853: x9 + x110 + x155 <= 1
 clq854: x16 + x146 + x151 <= 1
 clq855: x10 + x64 <= 1
 clq856: x25 + x86 + x92 <= 1
 clq857: x21 + x50 <= 1
 clq858: x66 + x88 + x145 <= 1
Bounds
 0 <= x1 <= 1
 0 <= x2 <= 1
 0 <= x3 <= 1
 0 <= x4 <= 1
 0 <= x5 <= 1
 0 <= x6 <= 1
 0 <= x7 <= 1
 0 <= x8 <= 1
 0 <= x9 <= 1
 0 <= x10 <= 1
 0 <= x11 <= 1
 0 <= x12 <= 1
 0 <= x13 <= 1
 0 <= x14 <= 1
 0 <= x15 <= 1
 0 <= x16 <= 1
 0 <= x17 <= 1
 0 <= x18 <= 1
 0 <= x19 <= 1
 0 <= x20 <= 1
 0 <= x21 <= 1
 0 <= x22 <= 1
 0 <= x23 <= 1
 0 <= x24 <= 1
 0 <= x25 <= 1
 0 <= x26 <= 1
 0 <= x27 <= 1
 0 <= x28 <= 1
 0 <= x29 <= 1
 0 <= x30 <= 1
 0 <= x31 <= 1
 0 <= x32 <= 1
 0 <= x33 <= 1
 0 <= x34 <= 1
 0 <= x35 <= 1
 0 <= x36 <= 1
 0 <= x37 <= 1
 0 <= x38 <= 1
 0 <= x39 <= 1
 0 <= x40 <= 1
 0 <= x41 <= 1
 0 <= x42 <= 1
 0 <= x43 <= 1
 0 <= x44 <= 1
 0 <= x45 <= 1
 0 <= x46 <= 1
 0 <= x47 <= 1
 0 <= x48 <= 1
 0 <= x49 <= 1
 0 <= x50 <= 1
 0 <= x51 <= 1
 0 <= x52 <= 1
 0 <= x53 <= 1
 0 <= x54 <= 1
 0 <= x55 <= 1
 0 <= x56 <= 1
 0 <= x57 <= 1
 0 <= x58 <= 1
 0 <= x59 <= 1
 0 <= x60 <= 1
 0 <= x61 <= 1
 0 <= x62 <= 1
 0 <= x63 <= 1
 0 <= x64 <= 1
 0 <= x65 <= 1
 0 <= x66 <= 1
 0 <= x67 <= 1
 0 <= x68 <= 1
 0 <= x69 <= 1
 0 <= x70 <= 1
 0 <= x71 <= 1
 0 <= x72 <= 1
 0 <= x73 <= 1
 0 <= x74 <= 1
 0 <= x75 <= 1
 0 <= x76 <= 1
 0 <= x77 <= 1
 0 <= x78 <= 1
 0 <= x79 <= 1
 0 <= x80 <= 1
 0 <= x81 <= 1
 0 <= x82 <= 1
 0 <= x83 <= 1
 0 <= x84 <= 1
 0 <= x85 <= 1
 0 <= x86 <= 1
 0 <= x87 <= 1
 0 <= x88 <= 1
 0 <= x89 <= 1
 0 <= x90 <= 1
 0 <= x91 <= 1
 0 <= x92 <= 1
 0 <= x93 <= 1
 0 <= x94 <= 1
 0 <= x95 <= 1
 0 <= x96 <= 1
 0 <= x97 <= 1
 0 <= x98 <= 1
 0 <= x99 <= 1
 0 <= x100 <= 1
 0 <= x101 <= 1
 0 <= x102 <= 1
 0 <= x103 <= 1
 0 <= x104 <= 1
 0 <= x105 <= 1
 0 <= x106 <= 1
 0 <= x107 <= 1
 0 <= x108 <= 1
 0 <= x109 <= 1
 0 <= x110 <= 1
 0 <= x111 <= 1
 0 <= x112 <= 1
 0 <= x113 <= 1
 0 <= x114 <= 1
 0 <= x115 <= 1
 0 <= x116 <= 1
 0 <= x117 <= 1
 0 <= x118 <= 1
 0 <= x119 <= 1
 0 <= x120 <= 1
 0 <= x121 <= 1
 0 <= x122 <= 1
 0 <= x123 <= 1
 0 <= x124 <= 1
 0 <= x125 <= 1
 0 <= x126 <= 1
 0 <= x127 <= 1
 0 <= x128 <= 1
 0 <= x129 <= 1
 0 <= x130 <= 1
 0 <= x131 <= 1
 0 <= x132 <= 1
 0 <= x133 <= 1
 0 <= x134 <= 1
 0 <= x135 <= 1
 0 <= x136 <= 1
 0 <= x137 <= 1
 0 <= x138 <= 1
 0 <= x139 <= 1
 0 <= x140 <= 1
 0 <= x141 <= 1
 0 <= x142 <= 1
 0 <= x143 <= 1
 0 <= x144 <= 1
 0 <= x145 <= 1
 0 <= x146 <= 1
 0 <= x147 <= 1
 0 <= x148 <= 1
 0 <= x149 <= 1
 0 <= x150 <= 1
 0 <= x151 <= 1
 0 <= x152 <= 1
 0 <= x153 <= 1
 0 <= x154 <= 1
 0 <= x155 <= 1
 0 <= x156 <= 1
 0 <= x157 <= 1
 0 <= x158 <= 1
 0 <= x159 <= 1
 0 <= x160 <= 1
 0 <= x161 <= 1
 0 <= x162 <= 1
 0 <= x163 <= 1
 0 <= x164 <= 1
 0 <= x165 <= 1
 0 <= x166 <= 1
 0 <= x167 <= 1
 0 <= x168 <= 1
 0 <= x169 <= 1
 0 <= x170 <= 1
 0 <= x171 <= 1
 0 <= x172 <= 1
 0 <= x173 <= 1
 0 <= x174 <= 1
 0 <= x175 <= 1
Binaries
 x1  x2  x3  x4  x5  x6  x7  x8  x9  x10  x11  x12  x13  x14  x15  x16  x17 
 x18  x19  x20  x21  x22  x23  x24  x25  x26  x27  x28  x29  x30  x31  x32 
 x33  x34  x35  x36  x37  x38  x39  x40  x41  x42  x43  x44  x45  x46  x47 
 x48  x49  x50  x51  x52  x53  x54  x55  x56  x57  x58  x59  x60  x61  x62 
 x63  x64  x65  x66  x67  x68  x69  x70  x71  x72  x73  x74  x75  x76  x77 
 x78  x79  x80  x81  x82  x83  x84  x85  x86  x87  x88  x89  x90  x91  x92 
 x93  x94  x95  x96  x97  x98  x99  x100  x101  x102  x103  x104  x105  x106 
 x107  x108  x109  x110  x111  x112  x113  x114  x115  x116  x117  x118  x119 
 x120  x121  x122  x123  x124  x125  x126  x127  x128  x129  x130  x131  x132 
 x133  x134  x135  x136  x137  x138  x139  x140  x141  x142  x143  x144  x145 
 x146  x147  x148  x149  x150  x151  x152  x153  x154  x155  x156  x157  x158 
 x159  x160  x161  x162  x163  x164  x165  x166  x167  x168  x169  x170  x171 
 x172  x173  x174  x175 
End
